*SENSE:Maximize
NAME          MODEL
ROWS
 N  OBJ
 E  C0000000
 G  C0000001
 G  C0000002
 G  C0000003
 G  C0000004
 G  C0000005
 G  C0000006
 E  C0000007
COLUMNS
    X0000000  C0000000   1.000000000000e+00
    X0000000  C0000001   1.000000000000e+00
    X0000000  OBJ        1.000000000000e+02
    X0000001  C0000000   1.000000000000e+00
    X0000001  C0000002   1.000000000000e+00
    X0000001  OBJ        6.666666666667e+01
    X0000002  C0000000   1.000000000000e+00
    X0000002  C0000003   1.000000000000e+00
    X0000002  OBJ        1.000000000000e+02
    X0000003  C0000000   1.000000000000e+00
    X0000003  C0000004   1.000000000000e+00
    X0000003  OBJ        3.000000000000e+02
    X0000004  C0000000   1.000000000000e+00
    X0000004  C0000005   1.000000000000e+00
    X0000004  OBJ        1.500000000000e+02
    X0000005  C0000000   1.000000000000e+00
    X0000005  C0000006   1.000000000000e+00
    X0000005  OBJ        5.000000000000e+01
    X0000006  C0000000   1.000000000000e+00
    X0000006  C0000007   1.000000000000e+00
RHS
    RHS       C0000000   1.000000000000e+02
    RHS       C0000001   4.000000000000e+00
    RHS       C0000002   4.000000000000e+00
    RHS       C0000003   4.000000000000e+00
    RHS       C0000004   4.000000000000e+00
    RHS       C0000005   4.000000000000e+00
    RHS       C0000006   4.000000000000e+00
    RHS       C0000007   0.000000000000e+00
BOUNDS
 UP BND       X0000000   5.000000000000e+01
 UP BND       X0000001   5.000000000000e+01
 UP BND       X0000002   5.000000000000e+01
 UP BND       X0000003   5.000000000000e+01
 UP BND       X0000004   5.000000000000e+01
 UP BND       X0000005   5.000000000000e+01
 UP BND       X0000006   5.000000000000e+01
ENDATA
